p edge 150 4470
e 1 2
e 1 6
e 1 7
e 1 11
e 1 13
e 1 20
e 1 22
e 1 23
e 1 27
e 1 28
e 1 32
e 1 37
e 1 43
e 1 44
e 1 53
e 1 57
e 1 58
e 1 59
e 1 66
e 1 74
e 1 75
e 1 80
e 1 84
e 1 85
e 1 93
e 1 95
e 1 96
e 1 99
e 1 104
e 1 106
e 1 107
e 1 108
e 1 110
e 1 114
e 1 117
e 1 118
e 1 120
e 1 123
e 1 124
e 1 125
e 1 126
e 1 128
e 1 131
e 1 133
e 1 137
e 1 144
e 1 145
e 2 8
e 2 10
e 2 14
e 2 16
e 2 17
e 2 19
e 2 23
e 2 24
e 2 26
e 2 28
e 2 30
e 2 32
e 2 35
e 2 36
e 2 41
e 2 44
e 2 45
e 2 47
e 2 48
e 2 49
e 2 50
e 2 51
e 2 52
e 2 54
e 2 56
e 2 61
e 2 62
e 2 63
e 2 64
e 2 78
e 2 81
e 2 84
e 2 86
e 2 88
e 2 90
e 2 94
e 2 97
e 2 98
e 2 105
e 2 109
e 2 115
e 2 116
e 2 117
e 2 121
e 2 124
e 2 126
e 2 127
e 2 129
e 2 131
e 2 135
e 2 138
e 2 145
e 2 146
e 2 147
e 2 148
e 3 4
e 3 6
e 3 10
e 3 11
e 3 12
e 3 15
e 3 17
e 3 19
e 3 20
e 3 21
e 3 26
e 3 27
e 3 32
e 3 33
e 3 34
e 3 40
e 3 46
e 3 50
e 3 51
e 3 54
e 3 56
e 3 57
e 3 58
e 3 61
e 3 63
e 3 64
e 3 65
e 3 67
e 3 68
e 3 74
e 3 76
e 3 81
e 3 83
e 3 85
e 3 89
e 3 90
e 3 92
e 3 95
e 3 98
e 3 106
e 3 107
e 3 108
e 3 111
e 3 115
e 3 117
e 3 125
e 3 126
e 3 128
e 3 131
e 3 132
e 3 136
e 3 139
e 3 142
e 3 143
e 3 145
e 3 147
e 3 149
e 3 150
e 4 5
e 4 12
e 4 13
e 4 15
e 4 27
e 4 32
e 4 34
e 4 35
e 4 36
e 4 38
e 4 39
e 4 42
e 4 44
e 4 45
e 4 47
e 4 48
e 4 51
e 4 52
e 4 55
e 4 59
e 4 64
e 4 67
e 4 72
e 4 78
e 4 85
e 4 87
e 4 88
e 4 89
e 4 91
e 4 94
e 4 96
e 4 99
e 4 100
e 4 103
e 4 106
e 4 109
e 4 112
e 4 114
e 4 115
e 4 117
e 4 118
e 4 120
e 4 124
e 4 126
e 4 127
e 4 128
e 4 130
e 4 137
e 4 140
e 4 141
e 4 146
e 4 147
e 4 148
e 4 149
e 4 150
e 5 7
e 5 11
e 5 13
e 5 19
e 5 21
e 5 25
e 5 28
e 5 31
e 5 32
e 5 33
e 5 36
e 5 38
e 5 39
e 5 40
e 5 43
e 5 45
e 5 51
e 5 56
e 5 57
e 5 60
e 5 63
e 5 64
e 5 67
e 5 68
e 5 69
e 5 70
e 5 72
e 5 74
e 5 77
e 5 82
e 5 86
e 5 87
e 5 88
e 5 90
e 5 94
e 5 95
e 5 96
e 5 97
e 5 100
e 5 101
e 5 104
e 5 105
e 5 108
e 5 109
e 5 111
e 5 112
e 5 115
e 5 116
e 5 117
e 5 124
e 5 128
e 5 129
e 5 131
e 5 133
e 5 134
e 5 135
e 5 137
e 5 138
e 5 140
e 5 144
e 5 146
e 5 148
e 6 10
e 6 11
e 6 21
e 6 24
e 6 25
e 6 26
e 6 27
e 6 33
e 6 36
e 6 37
e 6 38
e 6 42
e 6 44
e 6 47
e 6 49
e 6 50
e 6 52
e 6 53
e 6 54
e 6 55
e 6 56
e 6 57
e 6 61
e 6 62
e 6 64
e 6 68
e 6 77
e 6 78
e 6 81
e 6 82
e 6 83
e 6 88
e 6 89
e 6 94
e 6 95
e 6 96
e 6 99
e 6 101
e 6 106
e 6 107
e 6 108
e 6 110
e 6 111
e 6 114
e 6 120
e 6 122
e 6 126
e 6 131
e 6 133
e 6 135
e 6 138
e 6 139
e 6 141
e 6 143
e 6 144
e 6 146
e 6 147
e 6 148
e 6 149
e 6 150
e 7 9
e 7 10
e 7 11
e 7 17
e 7 18
e 7 19
e 7 20
e 7 23
e 7 25
e 7 29
e 7 30
e 7 31
e 7 38
e 7 40
e 7 44
e 7 45
e 7 46
e 7 48
e 7 49
e 7 50
e 7 51
e 7 56
e 7 59
e 7 63
e 7 64
e 7 67
e 7 76
e 7 77
e 7 79
e 7 80
e 7 81
e 7 82
e 7 83
e 7 84
e 7 85
e 7 89
e 7 90
e 7 91
e 7 94
e 7 96
e 7 97
e 7 98
e 7 101
e 7 105
e 7 110
e 7 113
e 7 114
e 7 115
e 7 122
e 7 124
e 7 125
e 7 126
e 7 127
e 7 130
e 7 132
e 7 134
e 7 135
e 7 136
e 7 138
e 7 139
e 7 140
e 7 142
e 7 145
e 7 147
e 8 9
e 8 11
e 8 12
e 8 17
e 8 19
e 8 21
e 8 27
e 8 30
e 8 31
e 8 35
e 8 37
e 8 39
e 8 41
e 8 44
e 8 48
e 8 49
e 8 51
e 8 54
e 8 55
e 8 56
e 8 60
e 8 66
e 8 67
e 8 69
e 8 70
e 8 72
e 8 73
e 8 74
e 8 78
e 8 79
e 8 84
e 8 87
e 8 89
e 8 92
e 8 93
e 8 94
e 8 95
e 8 96
e 8 98
e 8 105
e 8 107
e 8 108
e 8 109
e 8 110
e 8 115
e 8 117
e 8 127
e 8 130
e 8 134
e 8 136
e 8 139
e 8 141
e 8 142
e 8 146
e 8 147
e 8 148
e 9 11
e 9 16
e 9 17
e 9 19
e 9 20
e 9 22
e 9 23
e 9 28
e 9 29
e 9 30
e 9 31
e 9 32
e 9 37
e 9 40
e 9 41
e 9 48
e 9 49
e 9 50
e 9 58
e 9 59
e 9 60
e 9 62
e 9 66
e 9 67
e 9 71
e 9 72
e 9 76
e 9 77
e 9 78
e 9 81
e 9 82
e 9 88
e 9 97
e 9 99
e 9 104
e 9 105
e 9 106
e 9 108
e 9 111
e 9 112
e 9 114
e 9 119
e 9 121
e 9 123
e 9 124
e 9 125
e 9 126
e 9 131
e 9 132
e 9 133
e 9 137
e 9 140
e 9 141
e 9 145
e 9 146
e 9 147
e 9 149
e 9 150
e 10 11
e 10 12
e 10 17
e 10 20
e 10 22
e 10 24
e 10 28
e 10 29
e 10 32
e 10 36
e 10 39
e 10 40
e 10 45
e 10 46
e 10 54
e 10 55
e 10 61
e 10 65
e 10 66
e 10 69
e 10 72
e 10 74
e 10 76
e 10 80
e 10 86
e 10 93
e 10 94
e 10 97
e 10 99
e 10 100
e 10 102
e 10 106
e 10 113
e 10 114
e 10 115
e 10 117
e 10 118
e 10 120
e 10 121
e 10 122
e 10 124
e 10 126
e 10 127
e 10 129
e 10 130
e 10 131
e 10 134
e 10 137
e 10 146
e 10 149
e 11 13
e 11 18
e 11 19
e 11 22
e 11 24
e 11 31
e 11 35
e 11 37
e 11 38
e 11 41
e 11 42
e 11 47
e 11 50
e 11 51
e 11 53
e 11 54
e 11 59
e 11 62
e 11 65
e 11 73
e 11 74
e 11 79
e 11 80
e 11 85
e 11 87
e 11 92
e 11 99
e 11 100
e 11 101
e 11 102
e 11 105
e 11 108
e 11 109
e 11 111
e 11 112
e 11 113
e 11 114
e 11 115
e 11 116
e 11 118
e 11 119
e 11 120
e 11 123
e 11 126
e 11 128
e 11 132
e 11 137
e 11 139
e 11 140
e 11 141
e 11 144
e 11 148
e 12 18
e 12 20
e 12 23
e 12 25
e 12 30
e 12 31
e 12 34
e 12 35
e 12 36
e 12 37
e 12 40
e 12 45
e 12 47
e 12 48
e 12 55
e 12 57
e 12 59
e 12 62
e 12 65
e 12 67
e 12 68
e 12 74
e 12 75
e 12 76
e 12 77
e 12 81
e 12 83
e 12 84
e 12 85
e 12 89
e 12 90
e 12 91
e 12 92
e 12 95
e 12 96
e 12 103
e 12 104
e 12 106
e 12 108
e 12 109
e 12 112
e 12 116
e 12 118
e 12 124
e 12 127
e 12 129
e 12 130
e 12 132
e 12 135
e 12 139
e 12 140
e 12 143
e 12 144
e 12 145
e 12 146
e 12 147
e 13 15
e 13 19
e 13 21
e 13 28
e 13 29
e 13 31
e 13 33
e 13 38
e 13 44
e 13 45
e 13 48
e 13 52
e 13 54
e 13 56
e 13 57
e 13 63
e 13 64
e 13 65
e 13 66
e 13 67
e 13 68
e 13 72
e 13 75
e 13 77
e 13 81
e 13 82
e 13 83
e 13 87
e 13 91
e 13 95
e 13 97
e 13 98
e 13 99
e 13 103
e 13 107
e 13 112
e 13 113
e 13 117
e 13 118
e 13 119
e 13 123
e 13 129
e 13 132
e 13 134
e 13 135
e 13 140
e 13 141
e 13 142
e 13 144
e 13 148
e 13 149
e 14 20
e 14 22
e 14 26
e 14 27
e 14 30
e 14 31
e 14 33
e 14 39
e 14 41
e 14 49
e 14 52
e 14 53
e 14 55
e 14 61
e 14 63
e 14 64
e 14 65
e 14 66
e 14 68
e 14 69
e 14 71
e 14 72
e 14 73
e 14 75
e 14 76
e 14 77
e 14 78
e 14 79
e 14 80
e 14 82
e 14 83
e 14 84
e 14 85
e 14 86
e 14 87
e 14 88
e 14 90
e 14 91
e 14 93
e 14 94
e 14 95
e 14 96
e 14 101
e 14 104
e 14 105
e 14 107
e 14 109
e 14 111
e 14 113
e 14 114
e 14 117
e 14 119
e 14 120
e 14 121
e 14 127
e 14 130
e 14 131
e 14 132
e 14 138
e 14 143
e 14 144
e 14 145
e 14 146
e 14 149
e 15 17
e 15 24
e 15 25
e 15 27
e 15 29
e 15 31
e 15 36
e 15 42
e 15 43
e 15 45
e 15 53
e 15 58
e 15 59
e 15 63
e 15 66
e 15 76
e 15 79
e 15 81
e 15 82
e 15 85
e 15 86
e 15 88
e 15 93
e 15 94
e 15 97
e 15 99
e 15 101
e 15 106
e 15 107
e 15 113
e 15 115
e 15 116
e 15 120
e 15 121
e 15 122
e 15 128
e 15 133
e 15 137
e 15 138
e 15 139
e 15 146
e 15 149
e 16 17
e 16 20
e 16 21
e 16 23
e 16 26
e 16 30
e 16 35
e 16 36
e 16 37
e 16 40
e 16 43
e 16 44
e 16 45
e 16 46
e 16 49
e 16 50
e 16 51
e 16 52
e 16 57
e 16 58
e 16 59
e 16 68
e 16 69
e 16 72
e 16 76
e 16 77
e 16 78
e 16 81
e 16 85
e 16 89
e 16 90
e 16 93
e 16 96
e 16 98
e 16 99
e 16 100
e 16 105
e 16 111
e 16 112
e 16 113
e 16 115
e 16 116
e 16 122
e 16 124
e 16 125
e 16 130
e 16 133
e 16 136
e 16 138
e 16 139
e 16 142
e 16 144
e 16 147
e 16 150
e 17 18
e 17 19
e 17 20
e 17 22
e 17 23
e 17 24
e 17 25
e 17 29
e 17 33
e 17 34
e 17 38
e 17 39
e 17 40
e 17 42
e 17 43
e 17 54
e 17 61
e 17 68
e 17 70
e 17 71
e 17 73
e 17 74
e 17 75
e 17 76
e 17 78
e 17 80
e 17 82
e 17 85
e 17 86
e 17 87
e 17 88
e 17 92
e 17 95
e 17 96
e 17 102
e 17 103
e 17 106
e 17 108
e 17 109
e 17 111
e 17 112
e 17 113
e 17 114
e 17 117
e 17 118
e 17 120
e 17 121
e 17 124
e 17 125
e 17 127
e 17 129
e 17 131
e 17 132
e 17 139
e 17 145
e 17 146
e 17 148
e 17 149
e 18 21
e 18 26
e 18 28
e 18 29
e 18 31
e 18 33
e 18 34
e 18 37
e 18 39
e 18 43
e 18 45
e 18 49
e 18 53
e 18 59
e 18 60
e 18 61
e 18 64
e 18 65
e 18 67
e 18 68
e 18 70
e 18 72
e 18 73
e 18 75
e 18 76
e 18 81
e 18 86
e 18 87
e 18 89
e 18 93
e 18 96
e 18 102
e 18 103
e 18 105
e 18 108
e 18 115
e 18 118
e 18 120
e 18 123
e 18 124
e 18 125
e 18 129
e 18 130
e 18 137
e 18 139
e 18 143
e 18 144
e 18 147
e 18 150
e 19 24
e 19 25
e 19 32
e 19 33
e 19 34
e 19 38
e 19 39
e 19 40
e 19 42
e 19 44
e 19 50
e 19 52
e 19 53
e 19 56
e 19 59
e 19 61
e 19 63
e 19 65
e 19 70
e 19 72
e 19 76
e 19 78
e 19 86
e 19 89
e 19 90
e 19 91
e 19 92
e 19 93
e 19 98
e 19 100
e 19 101
e 19 103
e 19 104
e 19 108
e 19 109
e 19 112
e 19 113
e 19 115
e 19 120
e 19 122
e 19 126
e 19 129
e 19 132
e 19 137
e 19 139
e 19 143
e 19 150
e 20 21
e 20 22
e 20 23
e 20 25
e 20 27
e 20 34
e 20 45
e 20 47
e 20 48
e 20 49
e 20 51
e 20 52
e 20 55
e 20 57
e 20 59
e 20 62
e 20 63
e 20 67
e 20 70
e 20 71
e 20 73
e 20 77
e 20 78
e 20 80
e 20 81
e 20 83
e 20 87
e 20 88
e 20 89
e 20 93
e 20 95
e 20 97
e 20 99
e 20 100
e 20 104
e 20 105
e 20 107
e 20 108
e 20 112
e 20 113
e 20 120
e 20 127
e 20 130
e 20 134
e 20 140
e 20 141
e 20 143
e 20 144
e 20 145
e 20 146
e 21 22
e 21 30
e 21 31
e 21 32
e 21 33
e 21 36
e 21 39
e 21 42
e 21 44
e 21 46
e 21 49
e 21 50
e 21 51
e 21 52
e 21 57
e 21 59
e 21 60
e 21 62
e 21 65
e 21 66
e 21 67
e 21 70
e 21 74
e 21 78
e 21 81
e 21 83
e 21 88
e 21 89
e 21 92
e 21 95
e 21 96
e 21 100
e 21 102
e 21 104
e 21 106
e 21 113
e 21 114
e 21 118
e 21 120
e 21 122
e 21 126
e 21 128
e 21 130
e 21 132
e 21 133
e 21 134
e 21 145
e 21 146
e 21 147
e 21 149
e 21 150
e 22 28
e 22 31
e 22 33
e 22 37
e 22 41
e 22 42
e 22 43
e 22 52
e 22 54
e 22 57
e 22 62
e 22 63
e 22 64
e 22 69
e 22 75
e 22 77
e 22 79
e 22 82
e 22 85
e 22 86
e 22 87
e 22 88
e 22 89
e 22 92
e 22 94
e 22 95
e 22 100
e 22 106
e 22 107
e 22 109
e 22 113
e 22 114
e 22 118
e 22 121
e 22 122
e 22 125
e 22 126
e 22 127
e 22 128
e 22 131
e 22 133
e 22 136
e 22 137
e 22 138
e 22 143
e 22 146
e 23 25
e 23 28
e 23 31
e 23 32
e 23 33
e 23 35
e 23 36
e 23 37
e 23 38
e 23 45
e 23 47
e 23 49
e 23 51
e 23 53
e 23 63
e 23 71
e 23 73
e 23 77
e 23 82
e 23 84
e 23 85
e 23 90
e 23 94
e 23 95
e 23 97
e 23 100
e 23 102
e 23 104
e 23 109
e 23 111
e 23 113
e 23 117
e 23 120
e 23 121
e 23 128
e 23 131
e 23 132
e 23 134
e 23 136
e 23 137
e 23 138
e 23 140
e 23 142
e 23 143
e 23 146
e 23 147
e 23 149
e 24 25
e 24 26
e 24 32
e 24 33
e 24 35
e 24 36
e 24 37
e 24 42
e 24 43
e 24 45
e 24 47
e 24 51
e 24 55
e 24 56
e 24 57
e 24 58
e 24 60
e 24 61
e 24 62
e 24 66
e 24 67
e 24 68
e 24 70
e 24 71
e 24 74
e 24 77
e 24 84
e 24 85
e 24 95
e 24 96
e 24 98
e 24 101
e 24 102
e 24 103
e 24 107
e 24 110
e 24 112
e 24 114
e 24 120
e 24 121
e 24 123
e 24 124
e 24 131
e 24 134
e 24 135
e 24 138
e 24 143
e 24 145
e 24 147
e 24 148
e 24 150
e 25 26
e 25 36
e 25 40
e 25 43
e 25 46
e 25 50
e 25 54
e 25 58
e 25 59
e 25 64
e 25 65
e 25 66
e 25 68
e 25 71
e 25 77
e 25 82
e 25 83
e 25 84
e 25 87
e 25 88
e 25 89
e 25 90
e 25 94
e 25 95
e 25 97
e 25 102
e 25 103
e 25 104
e 25 106
e 25 107
e 25 108
e 25 109
e 25 115
e 25 116
e 25 119
e 25 120
e 25 122
e 25 123
e 25 129
e 25 130
e 25 131
e 25 135
e 25 136
e 25 137
e 25 140
e 25 142
e 25 143
e 25 145
e 25 146
e 25 148
e 26 27
e 26 28
e 26 29
e 26 38
e 26 40
e 26 46
e 26 49
e 26 50
e 26 54
e 26 62
e 26 65
e 26 71
e 26 72
e 26 76
e 26 78
e 26 80
e 26 81
e 26 84
e 26 85
e 26 86
e 26 87
e 26 89
e 26 93
e 26 94
e 26 97
e 26 98
e 26 99
e 26 100
e 26 101
e 26 102
e 26 103
e 26 107
e 26 109
e 26 110
e 26 113
e 26 116
e 26 117
e 26 118
e 26 121
e 26 122
e 26 123
e 26 125
e 26 126
e 26 129
e 26 130
e 26 133
e 26 135
e 26 139
e 26 140
e 26 142
e 26 147
e 26 150
e 27 28
e 27 33
e 27 34
e 27 41
e 27 43
e 27 47
e 27 48
e 27 51
e 27 53
e 27 54
e 27 55
e 27 57
e 27 59
e 27 60
e 27 61
e 27 64
e 27 65
e 27 67
e 27 68
e 27 70
e 27 71
e 27 74
e 27 79
e 27 80
e 27 81
e 27 85
e 27 90
e 27 92
e 27 93
e 27 96
e 27 97
e 27 99
e 27 101
e 27 106
e 27 109
e 27 111
e 27 114
e 27 115
e 27 116
e 27 117
e 27 120
e 27 121
e 27 122
e 27 125
e 27 127
e 27 128
e 27 131
e 27 132
e 27 134
e 27 135
e 27 136
e 27 138
e 27 144
e 27 145
e 27 146
e 27 147
e 28 29
e 28 33
e 28 38
e 28 39
e 28 40
e 28 43
e 28 45
e 28 51
e 28 53
e 28 54
e 28 55
e 28 56
e 28 59
e 28 61
e 28 64
e 28 65
e 28 66
e 28 67
e 28 69
e 28 70
e 28 71
e 28 72
e 28 76
e 28 77
e 28 78
e 28 80
e 28 83
e 28 89
e 28 92
e 28 95
e 28 100
e 28 101
e 28 102
e 28 104
e 28 106
e 28 107
e 28 110
e 28 111
e 28 112
e 28 114
e 28 122
e 28 124
e 28 125
e 28 126
e 28 127
e 28 131
e 28 132
e 28 135
e 28 137
e 28 141
e 28 142
e 28 148
e 28 150
e 29 30
e 29 36
e 29 41
e 29 43
e 29 45
e 29 48
e 29 49
e 29 50
e 29 51
e 29 54
e 29 55
e 29 56
e 29 57
e 29 61
e 29 63
e 29 66
e 29 67
e 29 73
e 29 74
e 29 76
e 29 77
e 29 78
e 29 79
e 29 80
e 29 81
e 29 83
e 29 87
e 29 88
e 29 90
e 29 92
e 29 101
e 29 103
e 29 107
e 29 110
e 29 111
e 29 113
e 29 116
e 29 117
e 29 118
e 29 119
e 29 120
e 29 124
e 29 130
e 29 131
e 29 135
e 29 140
e 29 145
e 29 146
e 29 148
e 29 149
e 30 37
e 30 39
e 30 42
e 30 43
e 30 44
e 30 46
e 30 51
e 30 53
e 30 54
e 30 56
e 30 59
e 30 60
e 30 62
e 30 63
e 30 64
e 30 65
e 30 66
e 30 69
e 30 71
e 30 73
e 30 74
e 30 77
e 30 94
e 30 103
e 30 104
e 30 106
e 30 110
e 30 112
e 30 114
e 30 118
e 30 119
e 30 121
e 30 126
e 30 129
e 30 130
e 30 132
e 30 135
e 30 136
e 30 142
e 30 144
e 30 145
e 30 150
e 31 35
e 31 39
e 31 40
e 31 41
e 31 43
e 31 47
e 31 49
e 31 50
e 31 56
e 31 57
e 31 58
e 31 59
e 31 60
e 31 62
e 31 65
e 31 74
e 31 76
e 31 77
e 31 78
e 31 81
e 31 87
e 31 93
e 31 94
e 31 95
e 31 97
e 31 98
e 31 102
e 31 108
e 31 110
e 31 116
e 31 123
e 31 125
e 31 126
e 31 127
e 31 128
e 31 137
e 31 138
e 31 142
e 31 145
e 31 148
e 31 150
e 32 35
e 32 41
e 32 44
e 32 45
e 32 46
e 32 54
e 32 55
e 32 56
e 32 57
e 32 60
e 32 65
e 32 70
e 32 80
e 32 83
e 32 84
e 32 85
e 32 86
e 32 88
e 32 91
e 32 92
e 32 94
e 32 95
e 32 96
e 32 97
e 32 98
e 32 100
e 32 105
e 32 108
e 32 109
e 32 110
e 32 112
e 32 113
e 32 114
e 32 116
e 32 120
e 32 121
e 32 126
e 32 127
e 32 128
e 32 130
e 32 131
e 32 132
e 32 134
e 32 138
e 32 139
e 32 141
e 32 142
e 32 144
e 32 146
e 32 148
e 32 149
e 32 150
e 33 34
e 33 38
e 33 44
e 33 45
e 33 46
e 33 48
e 33 49
e 33 51
e 33 56
e 33 57
e 33 58
e 33 61
e 33 63
e 33 64
e 33 65
e 33 66
e 33 68
e 33 73
e 33 79
e 33 82
e 33 83
e 33 84
e 33 85
e 33 86
e 33 88
e 33 89
e 33 91
e 33 96
e 33 98
e 33 100
e 33 109
e 33 110
e 33 111
e 33 112
e 33 114
e 33 116
e 33 117
e 33 118
e 33 119
e 33 120
e 33 123
e 33 124
e 33 125
e 33 129
e 33 131
e 33 133
e 33 134
e 33 145
e 33 147
e 33 148
e 33 149
e 33 150
e 34 40
e 34 43
e 34 44
e 34 45
e 34 51
e 34 52
e 34 54
e 34 56
e 34 59
e 34 60
e 34 64
e 34 65
e 34 68
e 34 71
e 34 72
e 34 87
e 34 89
e 34 90
e 34 93
e 34 94
e 34 99
e 34 100
e 34 102
e 34 103
e 34 104
e 34 106
e 34 107
e 34 110
e 34 113
e 34 115
e 34 116
e 34 117
e 34 121
e 34 122
e 34 124
e 34 125
e 34 127
e 34 131
e 34 133
e 34 134
e 34 136
e 34 142
e 34 144
e 34 145
e 34 147
e 34 150
e 35 38
e 35 42
e 35 44
e 35 45
e 35 48
e 35 50
e 35 51
e 35 53
e 35 55
e 35 58
e 35 59
e 35 60
e 35 61
e 35 65
e 35 66
e 35 70
e 35 71
e 35 72
e 35 73
e 35 74
e 35 75
e 35 77
e 35 78
e 35 79
e 35 81
e 35 82
e 35 84
e 35 85
e 35 92
e 35 93
e 35 94
e 35 95
e 35 97
e 35 101
e 35 104
e 35 106
e 35 109
e 35 112
e 35 115
e 35 116
e 35 119
e 35 120
e 35 125
e 35 126
e 35 128
e 35 131
e 35 133
e 35 134
e 35 137
e 35 138
e 35 139
e 35 140
e 35 141
e 35 142
e 35 143
e 35 144
e 35 146
e 35 147
e 35 148
e 36 38
e 36 39
e 36 40
e 36 41
e 36 42
e 36 44
e 36 47
e 36 48
e 36 51
e 36 52
e 36 55
e 36 58
e 36 59
e 36 60
e 36 62
e 36 65
e 36 66
e 36 68
e 36 71
e 36 72
e 36 73
e 36 74
e 36 75
e 36 76
e 36 78
e 36 79
e 36 80
e 36 81
e 36 82
e 36 83
e 36 85
e 36 89
e 36 93
e 36 96
e 36 99
e 36 100
e 36 102
e 36 107
e 36 112
e 36 114
e 36 117
e 36 119
e 36 123
e 36 124
e 36 125
e 36 127
e 36 128
e 36 131
e 36 134
e 36 137
e 36 143
e 36 144
e 36 145
e 36 146
e 36 147
e 36 148
e 37 38
e 37 41
e 37 46
e 37 51
e 37 52
e 37 56
e 37 58
e 37 65
e 37 66
e 37 73
e 37 75
e 37 79
e 37 81
e 37 82
e 37 84
e 37 89
e 37 94
e 37 97
e 37 108
e 37 109
e 37 111
e 37 112
e 37 113
e 37 114
e 37 120
e 37 122
e 37 124
e 37 129
e 37 130
e 37 133
e 37 135
e 37 137
e 37 139
e 37 143
e 37 146
e 37 148
e 37 149
e 38 42
e 38 44
e 38 45
e 38 47
e 38 48
e 38 55
e 38 56
e 38 65
e 38 66
e 38 67
e 38 74
e 38 79
e 38 80
e 38 82
e 38 83
e 38 84
e 38 88
e 38 91
e 38 92
e 38 93
e 38 94
e 38 96
e 38 98
e 38 100
e 38 101
e 38 105
e 38 107
e 38 109
e 38 111
e 38 114
e 38 118
e 38 122
e 38 123
e 38 125
e 38 126
e 38 127
e 38 128
e 38 131
e 38 134
e 38 135
e 38 138
e 38 143
e 38 145
e 38 146
e 38 149
e 39 42
e 39 43
e 39 44
e 39 45
e 39 47
e 39 48
e 39 52
e 39 53
e 39 54
e 39 57
e 39 63
e 39 64
e 39 69
e 39 71
e 39 74
e 39 77
e 39 79
e 39 80
e 39 81
e 39 83
e 39 85
e 39 86
e 39 87
e 39 88
e 39 90
e 39 91
e 39 93
e 39 94
e 39 99
e 39 101
e 39 102
e 39 103
e 39 104
e 39 106
e 39 110
e 39 116
e 39 118
e 39 123
e 39 131
e 39 135
e 39 136
e 39 137
e 39 139
e 39 142
e 39 145
e 39 147
e 39 149
e 39 150
e 40 41
e 40 42
e 40 43
e 40 46
e 40 47
e 40 48
e 40 54
e 40 55
e 40 58
e 40 59
e 40 61
e 40 67
e 40 74
e 40 78
e 40 79
e 40 80
e 40 82
e 40 86
e 40 87
e 40 90
e 40 93
e 40 96
e 40 97
e 40 99
e 40 100
e 40 102
e 40 104
e 40 106
e 40 107
e 40 109
e 40 114
e 40 116
e 40 117
e 40 121
e 40 122
e 40 127
e 40 129
e 40 131
e 40 132
e 40 139
e 40 141
e 40 145
e 40 147
e 40 148
e 40 149
e 41 43
e 41 44
e 41 47
e 41 49
e 41 66
e 41 75
e 41 76
e 41 77
e 41 78
e 41 79
e 41 86
e 41 87
e 41 91
e 41 92
e 41 93
e 41 97
e 41 98
e 41 101
e 41 102
e 41 104
e 41 105
e 41 107
e 41 110
e 41 111
e 41 113
e 41 114
e 41 118
e 41 123
e 41 125
e 41 127
e 41 131
e 41 133
e 41 137
e 41 139
e 41 146
e 41 147
e 41 150
e 42 48
e 42 55
e 42 56
e 42 60
e 42 63
e 42 64
e 42 68
e 42 70
e 42 71
e 42 73
e 42 77
e 42 78
e 42 85
e 42 86
e 42 95
e 42 97
e 42 99
e 42 101
e 42 107
e 42 108
e 42 110
e 42 112
e 42 119
e 42 122
e 42 125
e 42 132
e 42 134
e 42 135
e 42 137
e 42 139
e 42 142
e 42 143
e 42 144
e 42 147
e 42 148
e 42 150
e 43 49
e 43 50
e 43 53
e 43 58
e 43 69
e 43 70
e 43 72
e 43 74
e 43 77
e 43 79
e 43 81
e 43 82
e 43 87
e 43 96
e 43 98
e 43 99
e 43 100
e 43 102
e 43 103
e 43 105
e 43 109
e 43 111
e 43 115
e 43 117
e 43 120
e 43 129
e 43 131
e 43 132
e 43 136
e 43 137
e 43 138
e 43 139
e 43 142
e 43 143
e 43 144
e 43 146
e 43 147
e 43 149
e 43 150
e 44 46
e 44 47
e 44 48
e 44 51
e 44 52
e 44 53
e 44 56
e 44 57
e 44 58
e 44 59
e 44 62
e 44 63
e 44 64
e 44 66
e 44 67
e 44 74
e 44 76
e 44 77
e 44 78
e 44 79
e 44 81
e 44 83
e 44 84
e 44 85
e 44 87
e 44 88
e 44 89
e 44 96
e 44 97
e 44 98
e 44 100
e 44 102
e 44 103
e 44 104
e 44 105
e 44 107
e 44 111
e 44 116
e 44 120
e 44 124
e 44 125
e 44 129
e 44 139
e 44 140
e 44 145
e 44 148
e 44 149
e 44 150
e 45 46
e 45 48
e 45 50
e 45 51
e 45 54
e 45 55
e 45 56
e 45 58
e 45 59
e 45 60
e 45 68
e 45 70
e 45 71
e 45 76
e 45 77
e 45 78
e 45 81
e 45 88
e 45 93
e 45 98
e 45 102
e 45 103
e 45 104
e 45 106
e 45 107
e 45 108
e 45 109
e 45 112
e 45 114
e 45 118
e 45 119
e 45 125
e 45 126
e 45 128
e 45 129
e 45 134
e 45 137
e 45 139
e 45 140
e 45 142
e 45 144
e 45 145
e 45 148
e 45 149
e 46 49
e 46 50
e 46 54
e 46 55
e 46 57
e 46 59
e 46 61
e 46 63
e 46 67
e 46 68
e 46 69
e 46 70
e 46 71
e 46 73
e 46 74
e 46 76
e 46 77
e 46 78
e 46 80
e 46 83
e 46 85
e 46 86
e 46 88
e 46 89
e 46 90
e 46 93
e 46 95
e 46 96
e 46 98
e 46 102
e 46 104
e 46 105
e 46 108
e 46 110
e 46 111
e 46 112
e 46 114
e 46 118
e 46 119
e 46 124
e 46 132
e 46 134
e 46 136
e 46 137
e 46 138
e 46 139
e 46 141
e 46 142
e 46 145
e 46 146
e 47 50
e 47 51
e 47 53
e 47 54
e 47 56
e 47 57
e 47 60
e 47 64
e 47 65
e 47 66
e 47 67
e 47 70
e 47 72
e 47 74
e 47 78
e 47 79
e 47 80
e 47 82
e 47 83
e 47 85
e 47 86
e 47 87
e 47 93
e 47 95
e 47 96
e 47 102
e 47 103
e 47 104
e 47 107
e 47 110
e 47 113
e 47 114
e 47 117
e 47 118
e 47 119
e 47 120
e 47 122
e 47 124
e 47 125
e 47 127
e 47 128
e 47 134
e 47 137
e 47 139
e 48 50
e 48 56
e 48 60
e 48 61
e 48 63
e 48 65
e 48 68
e 48 71
e 48 74
e 48 75
e 48 76
e 48 79
e 48 80
e 48 83
e 48 84
e 48 87
e 48 91
e 48 94
e 48 95
e 48 97
e 48 100
e 48 102
e 48 107
e 48 108
e 48 110
e 48 113
e 48 115
e 48 118
e 48 120
e 48 123
e 48 125
e 48 126
e 48 127
e 48 128
e 48 129
e 48 131
e 48 132
e 48 133
e 48 135
e 48 136
e 48 139
e 48 140
e 48 141
e 48 142
e 48 144
e 48 146
e 49 51
e 49 52
e 49 58
e 49 59
e 49 62
e 49 64
e 49 65
e 49 69
e 49 70
e 49 76
e 49 79
e 49 83
e 49 85
e 49 90
e 49 94
e 49 95
e 49 96
e 49 99
e 49 103
e 49 104
e 49 106
e 49 120
e 49 121
e 49 122
e 49 128
e 49 132
e 49 133
e 49 135
e 49 136
e 49 139
e 49 143
e 50 51
e 50 53
e 50 54
e 50 55
e 50 56
e 50 57
e 50 58
e 50 65
e 50 68
e 50 69
e 50 73
e 50 78
e 50 82
e 50 85
e 50 86
e 50 87
e 50 90
e 50 92
e 50 94
e 50 95
e 50 96
e 50 98
e 50 99
e 50 105
e 50 107
e 50 111
e 50 113
e 50 114
e 50 116
e 50 120
e 50 121
e 50 123
e 50 127
e 50 130
e 50 131
e 50 132
e 50 135
e 50 136
e 50 137
e 50 138
e 50 143
e 50 144
e 50 146
e 50 148
e 50 149
e 51 52
e 51 54
e 51 57
e 51 64
e 51 65
e 51 66
e 51 67
e 51 70
e 51 71
e 51 75
e 51 78
e 51 80
e 51 83
e 51 86
e 51 88
e 51 92
e 51 93
e 51 95
e 51 96
e 51 97
e 51 98
e 51 100
e 51 106
e 51 111
e 51 114
e 51 117
e 51 118
e 51 122
e 51 123
e 51 125
e 51 135
e 51 136
e 51 138
e 51 140
e 51 141
e 51 143
e 51 145
e 51 147
e 52 54
e 52 55
e 52 60
e 52 62
e 52 63
e 52 64
e 52 68
e 52 69
e 52 76
e 52 80
e 52 81
e 52 86
e 52 88
e 52 89
e 52 91
e 52 95
e 52 96
e 52 98
e 52 104
e 52 106
e 52 108
e 52 111
e 52 115
e 52 116
e 52 120
e 52 124
e 52 125
e 52 128
e 52 129
e 52 130
e 52 132
e 52 135
e 52 139
e 52 141
e 52 143
e 52 146
e 52 147
e 52 148
e 53 55
e 53 58
e 53 59
e 53 60
e 53 62
e 53 63
e 53 64
e 53 68
e 53 71
e 53 74
e 53 75
e 53 76
e 53 77
e 53 80
e 53 84
e 53 89
e 53 90
e 53 91
e 53 92
e 53 106
e 53 107
e 53 109
e 53 113
e 53 115
e 53 116
e 53 119
e 53 127
e 53 130
e 53 135
e 53 137
e 53 142
e 53 145
e 53 146
e 53 148
e 53 150
e 54 56
e 54 57
e 54 58
e 54 62
e 54 65
e 54 66
e 54 69
e 54 71
e 54 73
e 54 77
e 54 80
e 54 81
e 54 82
e 54 85
e 54 88
e 54 89
e 54 91
e 54 92
e 54 93
e 54 95
e 54 96
e 54 98
e 54 99
e 54 103
e 54 109
e 54 110
e 54 114
e 54 115
e 54 116
e 54 121
e 54 123
e 54 128
e 54 129
e 54 132
e 54 133
e 54 136
e 54 138
e 54 140
e 54 141
e 54 142
e 54 145
e 54 149
e 55 58
e 55 59
e 55 62
e 55 66
e 55 67
e 55 68
e 55 69
e 55 70
e 55 74
e 55 75
e 55 76
e 55 77
e 55 81
e 55 82
e 55 83
e 55 84
e 55 88
e 55 90
e 55 92
e 55 93
e 55 94
e 55 100
e 55 101
e 55 103
e 55 107
e 55 109
e 55 110
e 55 111
e 55 112
e 55 114
e 55 115
e 55 125
e 55 126
e 55 127
e 55 128
e 55 129
e 55 130
e 55 135
e 55 136
e 55 137
e 55 138
e 55 139
e 55 141
e 55 145
e 55 147
e 55 148
e 56 59
e 56 60
e 56 61
e 56 65
e 56 68
e 56 70
e 56 72
e 56 74
e 56 75
e 56 76
e 56 80
e 56 83
e 56 85
e 56 88
e 56 89
e 56 93
e 56 98
e 56 99
e 56 101
e 56 104
e 56 105
e 56 107
e 56 109
e 56 110
e 56 113
e 56 115
e 56 116
e 56 121
e 56 122
e 56 125
e 56 133
e 56 136
e 56 137
e 56 138
e 56 139
e 56 140
e 56 141
e 56 144
e 56 149
e 57 58
e 57 63
e 57 65
e 57 78
e 57 79
e 57 80
e 57 82
e 57 86
e 57 87
e 57 89
e 57 90
e 57 91
e 57 96
e 57 99
e 57 101
e 57 102
e 57 107
e 57 108
e 57 111
e 57 112
e 57 113
e 57 117
e 57 118
e 57 120
e 57 125
e 57 126
e 57 128
e 57 129
e 57 131
e 57 134
e 57 135
e 57 136
e 57 144
e 57 146
e 57 149
e 58 65
e 58 67
e 58 68
e 58 69
e 58 70
e 58 74
e 58 75
e 58 78
e 58 80
e 58 83
e 58 84
e 58 85
e 58 86
e 58 90
e 58 91
e 58 92
e 58 93
e 58 98
e 58 103
e 58 105
e 58 110
e 58 111
e 58 117
e 58 118
e 58 121
e 58 123
e 58 125
e 58 128
e 58 138
e 58 140
e 58 141
e 58 142
e 58 143
e 58 145
e 58 146
e 58 148
e 59 60
e 59 61
e 59 65
e 59 66
e 59 70
e 59 71
e 59 72
e 59 77
e 59 78
e 59 80
e 59 81
e 59 82
e 59 83
e 59 84
e 59 90
e 59 91
e 59 92
e 59 94
e 59 95
e 59 96
e 59 98
e 59 99
e 59 100
e 59 101
e 59 105
e 59 106
e 59 107
e 59 108
e 59 109
e 59 111
e 59 112
e 59 113
e 59 114
e 59 115
e 59 122
e 59 124
e 59 126
e 59 127
e 59 128
e 59 129
e 59 131
e 59 132
e 59 134
e 59 137
e 59 139
e 59 140
e 59 145
e 59 148
e 60 61
e 60 62
e 60 63
e 60 71
e 60 72
e 60 73
e 60 74
e 60 78
e 60 82
e 60 83
e 60 84
e 60 85
e 60 86
e 60 87
e 60 90
e 60 92
e 60 93
e 60 94
e 60 96
e 60 100
e 60 101
e 60 105
e 60 107
e 60 108
e 60 109
e 60 115
e 60 116
e 60 117
e 60 118
e 60 119
e 60 122
e 60 127
e 60 128
e 60 131
e 60 135
e 60 137
e 60 139
e 60 143
e 60 145
e 60 148
e 60 149
e 60 150
e 61 64
e 61 67
e 61 69
e 61 71
e 61 72
e 61 73
e 61 76
e 61 78
e 61 79
e 61 80
e 61 82
e 61 85
e 61 87
e 61 90
e 61 91
e 61 93
e 61 95
e 61 96
e 61 101
e 61 102
e 61 106
e 61 107
e 61 110
e 61 114
e 61 115
e 61 116
e 61 117
e 61 118
e 61 120
e 61 121
e 61 125
e 61 126
e 61 132
e 61 139
e 61 140
e 61 141
e 61 143
e 61 145
e 61 146
e 61 150
e 62 64
e 62 70
e 62 72
e 62 74
e 62 80
e 62 81
e 62 83
e 62 85
e 62 89
e 62 90
e 62 91
e 62 93
e 62 94
e 62 97
e 62 99
e 62 103
e 62 106
e 62 107
e 62 112
e 62 113
e 62 115
e 62 117
e 62 118
e 62 120
e 62 121
e 62 122
e 62 124
e 62 125
e 62 127
e 62 128
e 62 134
e 62 136
e 62 138
e 62 140
e 62 144
e 62 146
e 62 147
e 63 64
e 63 66
e 63 68
e 63 72
e 63 73
e 63 75
e 63 77
e 63 82
e 63 86
e 63 91
e 63 93
e 63 95
e 63 102
e 63 104
e 63 106
e 63 109
e 63 111
e 63 112
e 63 114
e 63 115
e 63 117
e 63 118
e 63 122
e 63 123
e 63 127
e 63 128
e 63 130
e 63 131
e 63 132
e 63 134
e 63 136
e 63 137
e 63 139
e 63 143
e 63 146
e 63 147
e 63 148
e 64 68
e 64 69
e 64 73
e 64 76
e 64 78
e 64 79
e 64 81
e 64 82
e 64 85
e 64 89
e 64 92
e 64 93
e 64 94
e 64 96
e 64 98
e 64 100
e 64 101
e 64 102
e 64 104
e 64 108
e 64 110
e 64 113
e 64 115
e 64 117
e 64 118
e 64 120
e 64 126
e 64 130
e 64 133
e 64 143
e 64 145
e 64 146
e 65 67
e 65 68
e 65 70
e 65 71
e 65 72
e 65 73
e 65 75
e 65 76
e 65 77
e 65 82
e 65 84
e 65 88
e 65 89
e 65 90
e 65 94
e 65 95
e 65 100
e 65 101
e 65 104
e 65 105
e 65 109
e 65 110
e 65 111
e 65 114
e 65 123
e 65 125
e 65 127
e 65 128
e 65 129
e 65 134
e 65 135
e 65 136
e 65 138
e 65 141
e 65 147
e 65 149
e 66 71
e 66 72
e 66 73
e 66 74
e 66 75
e 66 76
e 66 80
e 66 81
e 66 85
e 66 87
e 66 88
e 66 92
e 66 95
e 66 97
e 66 101
e 66 105
e 66 107
e 66 108
e 66 109
e 66 110
e 66 113
e 66 114
e 66 117
e 66 119
e 66 121
e 66 125
e 66 126
e 66 131
e 66 133
e 66 135
e 66 136
e 66 138
e 66 142
e 66 145
e 66 147
e 66 148
e 67 70
e 67 71
e 67 75
e 67 77
e 67 80
e 67 82
e 67 87
e 67 88
e 67 89
e 67 93
e 67 96
e 67 100
e 67 101
e 67 106
e 67 108
e 67 110
e 67 114
e 67 115
e 67 117
e 67 119
e 67 124
e 67 125
e 67 130
e 67 139
e 67 144
e 67 146
e 67 147
e 67 149
e 67 150
e 68 70
e 68 72
e 68 73
e 68 75
e 68 76
e 68 77
e 68 79
e 68 80
e 68 87
e 68 88
e 68 89
e 68 92
e 68 93
e 68 94
e 68 101
e 68 105
e 68 106
e 68 111
e 68 112
e 68 116
e 68 121
e 68 124
e 68 127
e 68 128
e 68 131
e 68 132
e 68 133
e 68 136
e 68 137
e 68 139
e 68 141
e 68 143
e 68 145
e 69 74
e 69 75
e 69 76
e 69 78
e 69 80
e 69 82
e 69 83
e 69 87
e 69 92
e 69 100
e 69 103
e 69 104
e 69 105
e 69 106
e 69 110
e 69 112
e 69 117
e 69 118
e 69 119
e 69 121
e 69 122
e 69 124
e 69 126
e 69 127
e 69 130
e 69 134
e 69 135
e 69 137
e 69 138
e 69 139
e 69 142
e 69 150
e 70 78
e 70 84
e 70 85
e 70 93
e 70 94
e 70 97
e 70 100
e 70 101
e 70 102
e 70 105
e 70 107
e 70 113
e 70 117
e 70 118
e 70 119
e 70 120
e 70 121
e 70 124
e 70 125
e 70 126
e 70 127
e 70 130
e 70 133
e 70 134
e 70 137
e 70 138
e 70 142
e 70 143
e 70 147
e 70 150
e 71 72
e 71 73
e 71 74
e 71 76
e 71 79
e 71 83
e 71 85
e 71 88
e 71 90
e 71 97
e 71 105
e 71 107
e 71 108
e 71 111
e 71 116
e 71 118
e 71 119
e 71 122
e 71 124
e 71 126
e 71 128
e 71 129
e 71 135
e 71 138
e 71 140
e 71 141
e 71 143
e 71 147
e 71 149
e 72 73
e 72 74
e 72 77
e 72 79
e 72 80
e 72 81
e 72 82
e 72 85
e 72 86
e 72 90
e 72 92
e 72 97
e 72 99
e 72 101
e 72 104
e 72 108
e 72 113
e 72 121
e 72 122
e 72 125
e 72 127
e 72 132
e 72 141
e 72 145
e 72 146
e 72 148
e 72 149
e 73 74
e 73 76
e 73 77
e 73 79
e 73 81
e 73 86
e 73 90
e 73 94
e 73 95
e 73 97
e 73 101
e 73 102
e 73 106
e 73 107
e 73 108
e 73 110
e 73 114
e 73 117
e 73 118
e 73 124
e 73 125
e 73 126
e 73 127
e 73 128
e 73 129
e 73 130
e 73 132
e 73 134
e 73 136
e 73 139
e 73 140
e 73 141
e 73 143
e 73 145
e 73 146
e 73 148
e 73 150
e 74 75
e 74 81
e 74 85
e 74 88
e 74 92
e 74 93
e 74 97
e 74 98
e 74 99
e 74 101
e 74 104
e 74 106
e 74 108
e 74 110
e 74 112
e 74 113
e 74 114
e 74 116
e 74 119
e 74 121
e 74 122
e 74 123
e 74 124
e 74 125
e 74 126
e 74 138
e 74 142
e 74 147
e 75 82
e 75 87
e 75 88
e 75 91
e 75 92
e 75 95
e 75 98
e 75 101
e 75 102
e 75 103
e 75 105
e 75 108
e 75 109
e 75 110
e 75 114
e 75 117
e 75 123
e 75 124
e 75 125
e 75 126
e 75 128
e 75 131
e 75 132
e 75 134
e 75 135
e 75 136
e 75 145
e 75 146
e 75 149
e 76 78
e 76 79
e 76 80
e 76 83
e 76 88
e 76 90
e 76 94
e 76 95
e 76 96
e 76 98
e 76 101
e 76 104
e 76 105
e 76 109
e 76 114
e 76 115
e 76 116
e 76 117
e 76 119
e 76 122
e 76 123
e 76 133
e 76 141
e 76 144
e 76 149
e 76 150
e 77 80
e 77 81
e 77 84
e 77 87
e 77 90
e 77 91
e 77 92
e 77 96
e 77 98
e 77 99
e 77 102
e 77 105
e 77 106
e 77 108
e 77 109
e 77 110
e 77 112
e 77 116
e 77 118
e 77 120
e 77 121
e 77 126
e 77 127
e 77 128
e 77 132
e 77 135
e 77 137
e 77 139
e 77 142
e 77 144
e 77 149
e 77 150
e 78 80
e 78 83
e 78 86
e 78 87
e 78 88
e 78 90
e 78 93
e 78 96
e 78 97
e 78 98
e 78 105
e 78 106
e 78 107
e 78 108
e 78 109
e 78 112
e 78 116
e 78 117
e 78 118
e 78 119
e 78 120
e 78 124
e 78 125
e 78 127
e 78 129
e 78 131
e 78 134
e 78 136
e 78 137
e 78 139
e 78 140
e 78 141
e 78 142
e 78 145
e 78 146
e 78 147
e 78 148
e 78 149
e 79 81
e 79 84
e 79 85
e 79 90
e 79 92
e 79 99
e 79 101
e 79 102
e 79 103
e 79 106
e 79 107
e 79 108
e 79 112
e 79 113
e 79 115
e 79 118
e 79 119
e 79 120
e 79 125
e 79 129
e 79 133
e 79 134
e 79 136
e 79 138
e 79 141
e 79 142
e 79 143
e 79 144
e 79 145
e 79 147
e 79 150
e 80 82
e 80 83
e 80 84
e 80 85
e 80 90
e 80 95
e 80 104
e 80 107
e 80 109
e 80 112
e 80 116
e 80 119
e 80 124
e 80 126
e 80 129
e 80 131
e 80 134
e 80 137
e 80 143
e 80 144
e 80 149
e 80 150
e 81 82
e 81 84
e 81 86
e 81 87
e 81 91
e 81 94
e 81 95
e 81 100
e 81 101
e 81 103
e 81 104
e 81 105
e 81 108
e 81 109
e 81 111
e 81 114
e 81 115
e 81 116
e 81 118
e 81 119
e 81 125
e 81 131
e 81 132
e 81 137
e 81 139
e 81 143
e 81 147
e 81 148
e 81 149
e 82 85
e 82 91
e 82 92
e 82 94
e 82 95
e 82 101
e 82 103
e 82 104
e 82 109
e 82 111
e 82 114
e 82 115
e 82 118
e 82 122
e 82 127
e 82 132
e 82 133
e 82 138
e 82 139
e 82 141
e 82 142
e 82 145
e 82 148
e 83 84
e 83 85
e 83 88
e 83 91
e 83 92
e 83 94
e 83 95
e 83 99
e 83 100
e 83 102
e 83 109
e 83 111
e 83 117
e 83 122
e 83 123
e 83 128
e 83 130
e 83 133
e 83 142
e 83 145
e 83 147
e 83 148
e 84 85
e 84 86
e 84 88
e 84 100
e 84 104
e 84 105
e 84 107
e 84 109
e 84 111
e 84 112
e 84 113
e 84 115
e 84 116
e 84 117
e 84 118
e 84 119
e 84 121
e 84 124
e 84 127
e 84 132
e 84 133
e 84 135
e 84 137
e 84 138
e 84 139
e 84 141
e 84 143
e 84 144
e 84 145
e 84 147
e 84 148
e 84 150
e 85 86
e 85 87
e 85 88
e 85 93
e 85 94
e 85 99
e 85 100
e 85 103
e 85 105
e 85 108
e 85 109
e 85 110
e 85 111
e 85 112
e 85 115
e 85 117
e 85 122
e 85 124
e 85 126
e 85 128
e 85 131
e 85 135
e 85 138
e 85 139
e 85 143
e 85 144
e 85 147
e 85 150
e 86 87
e 86 89
e 86 93
e 86 94
e 86 100
e 86 101
e 86 104
e 86 106
e 86 107
e 86 108
e 86 109
e 86 111
e 86 112
e 86 113
e 86 115
e 86 122
e 86 123
e 86 124
e 86 129
e 86 131
e 86 136
e 86 139
e 86 142
e 86 144
e 86 145
e 86 146
e 86 147
e 86 148
e 86 149
e 87 90
e 87 91
e 87 92
e 87 93
e 87 94
e 87 96
e 87 99
e 87 100
e 87 104
e 87 105
e 87 107
e 87 108
e 87 111
e 87 112
e 87 116
e 87 117
e 87 120
e 87 124
e 87 126
e 87 127
e 87 128
e 87 132
e 87 134
e 87 146
e 87 147
e 87 149
e 87 150
e 88 89
e 88 90
e 88 94
e 88 96
e 88 97
e 88 101
e 88 103
e 88 108
e 88 110
e 88 113
e 88 115
e 88 116
e 88 117
e 88 119
e 88 121
e 88 122
e 88 135
e 88 139
e 88 141
e 88 142
e 88 143
e 88 147
e 88 148
e 89 91
e 89 100
e 89 105
e 89 106
e 89 107
e 89 109
e 89 110
e 89 111
e 89 112
e 89 117
e 89 130
e 89 133
e 89 135
e 89 139
e 89 143
e 89 145
e 89 146
e 89 149
e 89 150
e 90 93
e 90 94
e 90 100
e 90 106
e 90 107
e 90 110
e 90 111
e 90 113
e 90 114
e 90 122
e 90 123
e 90 133
e 90 136
e 90 137
e 90 139
e 90 140
e 90 141
e 90 144
e 90 146
e 90 147
e 90 150
e 91 94
e 91 95
e 91 96
e 91 99
e 91 100
e 91 105
e 91 107
e 91 113
e 91 115
e 91 117
e 91 122
e 91 124
e 91 125
e 91 129
e 91 130
e 91 131
e 91 133
e 91 137
e 91 139
e 91 142
e 91 143
e 91 144
e 91 145
e 91 147
e 91 149
e 91 150
e 92 94
e 92 96
e 92 97
e 92 100
e 92 103
e 92 104
e 92 114
e 92 116
e 92 121
e 92 123
e 92 124
e 92 126
e 92 128
e 92 133
e 92 134
e 92 136
e 92 141
e 93 95
e 93 96
e 93 97
e 93 99
e 93 107
e 93 108
e 93 114
e 93 118
e 93 125
e 93 129
e 93 130
e 93 132
e 93 133
e 93 134
e 93 137
e 93 142
e 93 145
e 93 146
e 93 147
e 93 150
e 94 96
e 94 98
e 94 101
e 94 102
e 94 103
e 94 104
e 94 106
e 94 108
e 94 110
e 94 112
e 94 113
e 94 115
e 94 119
e 94 120
e 94 121
e 94 122
e 94 128
e 94 133
e 94 142
e 94 143
e 94 144
e 94 145
e 94 148
e 94 149
e 94 150
e 95 97
e 95 100
e 95 104
e 95 106
e 95 108
e 95 109
e 95 110
e 95 111
e 95 113
e 95 115
e 95 116
e 95 117
e 95 122
e 95 124
e 95 125
e 95 129
e 95 133
e 95 137
e 95 139
e 95 141
e 95 143
e 95 147
e 95 148
e 96 97
e 96 106
e 96 110
e 96 113
e 96 117
e 96 122
e 96 123
e 96 127
e 96 130
e 96 132
e 96 138
e 96 140
e 96 146
e 96 147
e 96 148
e 96 149
e 97 100
e 97 102
e 97 106
e 97 112
e 97 118
e 97 119
e 97 121
e 97 122
e 97 124
e 97 127
e 97 128
e 97 129
e 97 133
e 97 134
e 97 136
e 97 139
e 97 141
e 97 144
e 97 147
e 97 150
e 98 105
e 98 107
e 98 109
e 98 113
e 98 114
e 98 119
e 98 121
e 98 123
e 98 124
e 98 126
e 98 127
e 98 128
e 98 130
e 98 132
e 98 133
e 98 134
e 98 141
e 98 143
e 98 150
e 99 101
e 99 102
e 99 106
e 99 107
e 99 116
e 99 117
e 99 118
e 99 119
e 99 121
e 99 124
e 99 126
e 99 134
e 99 137
e 99 141
e 99 142
e 99 149
e 100 101
e 100 103
e 100 105
e 100 106
e 100 107
e 100 108
e 100 119
e 100 124
e 100 125
e 100 127
e 100 131
e 100 134
e 100 136
e 100 141
e 100 142
e 100 143
e 100 145
e 100 146
e 100 148
e 100 149
e 101 106
e 101 107
e 101 108
e 101 112
e 101 115
e 101 117
e 101 121
e 101 129
e 101 130
e 101 131
e 101 136
e 101 138
e 101 139
e 101 142
e 101 143
e 101 146
e 101 147
e 101 148
e 101 150
e 102 107
e 102 109
e 102 111
e 102 114
e 102 116
e 102 117
e 102 119
e 102 120
e 102 124
e 102 125
e 102 126
e 102 129
e 102 130
e 102 132
e 102 135
e 102 139
e 102 140
e 102 142
e 102 143
e 102 145
e 102 147
e 102 148
e 102 149
e 102 150
e 103 105
e 103 106
e 103 109
e 103 110
e 103 117
e 103 120
e 103 121
e 103 122
e 103 123
e 103 125
e 103 127
e 103 128
e 103 129
e 103 130
e 103 132
e 103 134
e 103 137
e 103 138
e 103 140
e 103 143
e 103 147
e 103 148
e 103 149
e 104 106
e 104 110
e 104 115
e 104 116
e 104 118
e 104 119
e 104 120
e 104 122
e 104 124
e 104 126
e 104 127
e 104 128
e 104 129
e 104 131
e 104 133
e 104 137
e 104 141
e 104 143
e 104 144
e 104 146
e 105 107
e 105 111
e 105 112
e 105 113
e 105 122
e 105 123
e 105 126
e 105 127
e 105 131
e 105 133
e 105 134
e 105 142
e 105 144
e 105 149
e 106 108
e 106 111
e 106 112
e 106 114
e 106 116
e 106 120
e 106 124
e 106 125
e 106 127
e 106 128
e 106 134
e 106 137
e 106 139
e 106 140
e 106 141
e 106 144
e 106 145
e 106 146
e 106 147
e 106 149
e 107 109
e 107 111
e 107 113
e 107 114
e 107 118
e 107 120
e 107 121
e 107 123
e 107 124
e 107 125
e 107 126
e 107 127
e 107 129
e 107 130
e 107 131
e 107 132
e 107 135
e 107 136
e 107 138
e 107 139
e 107 144
e 107 145
e 107 146
e 108 111
e 108 113
e 108 115
e 108 116
e 108 117
e 108 119
e 108 121
e 108 127
e 108 130
e 108 131
e 108 134
e 108 135
e 108 136
e 108 138
e 108 139
e 108 140
e 108 144
e 108 148
e 109 115
e 109 116
e 109 120
e 109 121
e 109 123
e 109 124
e 109 126
e 109 135
e 109 137
e 109 139
e 109 143
e 109 144
e 109 145
e 109 149
e 110 113
e 110 114
e 110 115
e 110 116
e 110 119
e 110 121
e 110 124
e 110 128
e 110 132
e 110 137
e 110 141
e 110 142
e 110 145
e 111 113
e 111 116
e 111 117
e 111 123
e 111 124
e 111 126
e 111 129
e 111 134
e 111 135
e 111 136
e 111 139
e 111 142
e 111 145
e 111 146
e 111 147
e 112 115
e 112 116
e 112 118
e 112 121
e 112 122
e 112 123
e 112 124
e 112 125
e 112 126
e 112 129
e 112 132
e 112 133
e 112 138
e 112 139
e 112 141
e 112 143
e 112 144
e 112 145
e 112 147
e 112 149
e 112 150
e 113 116
e 113 119
e 113 126
e 113 127
e 113 130
e 113 137
e 113 139
e 113 141
e 113 143
e 113 146
e 113 148
e 113 150
e 114 117
e 114 119
e 114 120
e 114 121
e 114 123
e 114 125
e 114 126
e 114 127
e 114 128
e 114 132
e 114 133
e 114 134
e 114 135
e 114 138
e 114 141
e 114 143
e 114 145
e 114 146
e 114 147
e 114 149
e 115 118
e 115 120
e 115 121
e 115 122
e 115 124
e 115 125
e 115 127
e 115 129
e 115 132
e 115 134
e 115 138
e 115 139
e 115 140
e 115 141
e 115 143
e 115 144
e 116 117
e 116 122
e 116 124
e 116 125
e 116 126
e 116 132
e 116 133
e 116 136
e 116 139
e 116 142
e 116 143
e 116 145
e 117 118
e 117 121
e 117 129
e 117 131
e 117 132
e 117 133
e 117 136
e 117 138
e 117 140
e 117 141
e 117 145
e 117 149
e 117 150
e 118 119
e 118 120
e 118 121
e 118 122
e 118 124
e 118 125
e 118 126
e 118 130
e 118 133
e 118 135
e 118 136
e 118 137
e 118 139
e 118 141
e 118 144
e 118 147
e 118 150
e 119 120
e 119 137
e 119 139
e 119 140
e 119 143
e 119 144
e 119 145
e 119 149
e 120 122
e 120 126
e 120 134
e 120 135
e 120 137
e 120 140
e 120 144
e 120 148
e 121 125
e 121 128
e 121 129
e 121 133
e 121 134
e 121 135
e 121 140
e 121 146
e 121 148
e 122 123
e 122 124
e 122 133
e 122 135
e 122 136
e 122 138
e 122 140
e 122 143
e 122 146
e 123 124
e 123 129
e 123 130
e 123 133
e 123 134
e 123 135
e 123 137
e 123 139
e 123 140
e 123 143
e 123 145
e 123 147
e 123 149
e 123 150
e 124 125
e 124 128
e 124 129
e 124 132
e 124 135
e 124 136
e 124 139
e 124 143
e 124 144
e 124 149
e 125 126
e 125 134
e 125 136
e 125 140
e 125 141
e 125 147
e 125 148
e 125 149
e 125 150
e 126 127
e 126 128
e 126 129
e 126 130
e 126 132
e 126 134
e 126 136
e 126 137
e 126 138
e 126 142
e 126 143
e 126 146
e 126 150
e 127 129
e 127 130
e 127 131
e 127 134
e 127 137
e 127 138
e 127 140
e 127 141
e 127 143
e 127 149
e 128 132
e 128 133
e 128 138
e 128 140
e 128 142
e 128 143
e 128 144
e 128 145
e 128 146
e 128 147
e 128 149
e 129 131
e 129 136
e 129 139
e 129 140
e 129 141
e 130 131
e 130 132
e 130 133
e 130 134
e 130 136
e 130 139
e 130 141
e 130 148
e 130 149
e 131 133
e 131 136
e 131 139
e 131 144
e 132 133
e 132 135
e 132 138
e 132 141
e 132 143
e 132 148
e 132 149
e 133 134
e 133 145
e 133 148
e 133 150
e 134 135
e 134 138
e 134 147
e 134 149
e 135 139
e 135 141
e 135 146
e 135 148
e 135 149
e 136 138
e 136 143
e 136 144
e 136 145
e 136 147
e 137 142
e 137 143
e 137 144
e 137 147
e 138 139
e 138 142
e 138 143
e 138 146
e 138 149
e 139 145
e 139 149
e 139 150
e 140 141
e 140 143
e 140 149
e 141 143
e 141 146
e 142 143
e 142 144
e 142 145
e 142 148
e 143 146
e 143 150
e 144 145
e 144 148
e 144 149
e 145 146
e 145 149
e 148 149
e 149 150
